Geographic Exponential Decay
20 261 207 142 237 124 126 268 239 101 110 174 84 148 289 37 313 5 254 20 116
p edge 320 665
e 0 247 5.0
e 0 45 5.0
e 1 305 12.0
e 1 75 11.0
e 1 130 10.0
e 2 48 11.0
e 3 52 45.0
e 4 204 10.0
e 5 50 7.0
e 5 127 50.0
e 5 26 11.0
e 5 182 45.0
e 5 89 88.0
e 5 241 79.0
e 5 274 24.0
e 5 124 24.0
e 5 152 66.0
e 5 28 99.0
e 5 15 8.0
e 5 270 49.0
e 5 207 29.0
e 5 85 77.0
e 5 16 84.0
e 5 271 45.0
e 5 179 27.0
e 6 191 7.0
e 6 144 18.0
e 6 284 3.0
e 6 91 14.0
e 6 225 2.0
e 7 11 1.0
e 8 192 3.0
e 9 92 1.0
e 10 53 1.0
e 12 138 1.0
e 12 282 4.0
e 13 50 6.0
e 13 168 4.0
e 14 234 3.0
e 17 209 1.0
e 18 37 70.0
e 19 86 4.0
e 20 239 70.0
e 20 58 61.0
e 20 135 26.0
e 20 14 45.0
e 20 0 11.0
e 20 2 80.0
e 20 257 26.0
e 20 21 89.0
e 20 78 34.0
e 20 230 55.0
e 20 302 20.0
e 20 59 82.0
e 20 194 58.0
e 20 300 29.0
e 20 3 4.0
e 20 218 79.0
e 20 15 97.0
e 21 293 5.0
e 22 271 5.0
e 22 149 11.0
e 22 207 28.0
e 23 68 2.0
e 23 33 1.0
e 24 292 2.0
e 25 136 1.0
e 26 127 3.0
e 27 170 1.0
e 28 209 2.0
e 29 221 1.0
e 30 235 1.0
e 31 302 2.0
e 32 103 1.0
e 32 206 3.0
e 32 37 99.0
e 34 266 5.0
e 34 114 2.0
e 35 10 1.0
e 36 96 22.0
e 36 91 7.0
e 36 166 23.0
e 36 76 3.0
e 36 218 10.0
e 37 72 35.0
e 37 20 44.0
e 37 7 69.0
e 37 30 13.0
e 37 94 68.0
e 37 240 33.0
e 37 49 7.0
e 37 31 63.0
e 37 294 72.0
e 37 273 28.0
e 37 102 56.0
e 37 185 77.0
e 37 95 93.0
e 37 120 93.0
e 37 28 49.0
e 38 136 1.0
e 39 59 1.0
e 40 45 2.0
e 40 207 57.0
e 41 135 12.0
e 41 317 3.0
e 41 130 3.0
e 42 146 1.0
e 43 30 21.0
e 43 152 17.0
e 43 297 15.0
e 43 120 16.0
e 43 5 80.0
e 44 65 1.0
e 46 235 3.0
e 47 279 1.0
e 48 27 3.0
e 48 43 22.0
e 49 261 89.0
e 49 8 9.0
e 51 160 1.0
e 52 228 46.0
e 52 254 26.0
e 52 295 17.0
e 52 193 17.0
e 52 219 44.0
e 52 265 19.0
e 52 190 6.0
e 52 2 34.0
e 53 106 4.0
e 54 182 14.0
e 54 258 15.0
e 54 83 21.0
e 54 218 16.0
e 54 87 11.0
e 55 30 3.0
e 55 20 58.0
e 56 127 1.0
e 57 278 12.0
e 57 148 94.0
e 60 34 2.0
e 61 230 3.0
e 61 170 3.0
e 62 23 5.0
e 62 251 5.0
e 63 189 1.0
e 64 124 35.0
e 66 302 4.0
e 66 267 2.0
e 67 197 2.0
e 69 100 2.0
e 69 0 5.0
e 70 317 2.0
e 70 12 3.0
e 71 57 1.0
e 72 313 30.0
e 72 237 69.0
e 72 215 14.0
e 72 91 9.0
e 73 281 5.0
e 73 57 2.0
e 74 31 1.0
e 74 161 11.0
e 74 313 51.0
e 75 136 5.0
e 76 49 1.0
e 77 220 5.0
e 77 121 6.0
e 77 300 9.0
e 78 50 42.0
e 78 175 27.0
e 78 286 5.0
e 78 95 1.0
e 78 293 42.0
e 78 250 7.0
e 78 133 11.0
e 78 134 10.0
e 79 283 1.0
e 79 174 54.0
e 79 187 6.0
e 80 210 7.0
e 81 107 1.0
e 82 235 2.0
e 82 187 1.0
e 82 183 2.0
e 83 66 2.0
e 84 313 89.0
e 84 263 40.0
e 84 92 56.0
e 84 165 43.0
e 84 257 60.0
e 84 261 21.0
e 84 300 36.0
e 84 45 68.0
e 84 228 65.0
e 84 93 86.0
e 84 102 65.0
e 84 210 41.0
e 84 41 48.0
e 84 43 61.0
e 84 184 1.0
e 84 242 49.0
e 84 258 27.0
e 85 74 3.0
e 85 298 19.0
e 85 213 4.0
e 85 84 19.0
e 86 32 2.0
e 88 91 1.0
e 90 256 21.0
e 93 156 1.0
e 94 243 7.0
e 96 316 1.0
e 97 267 1.0
e 98 172 2.0
e 99 238 8.0
e 99 115 1.0
e 99 153 10.0
e 101 289 5.0
e 101 204 51.0
e 101 24 94.0
e 101 81 8.0
e 101 70 75.0
e 101 313 56.0
e 101 187 96.0
e 101 113 50.0
e 101 178 80.0
e 101 173 51.0
e 101 309 71.0
e 101 33 51.0
e 101 200 57.0
e 101 121 91.0
e 101 245 65.0
e 101 148 62.0
e 101 53 58.0
e 104 174 8.0
e 105 245 7.0
e 106 162 6.0
e 106 132 5.0
e 108 145 1.0
e 109 229 1.0
e 110 280 12.0
e 110 1 43.0
e 110 74 13.0
e 110 132 39.0
e 110 16 17.0
e 110 112 25.0
e 110 62 4.0
e 110 128 11.0
e 110 19 6.0
e 110 10 29.0
e 110 261 33.0
e 110 311 8.0
e 110 153 37.0
e 110 20 29.0
e 110 2 10.0
e 110 230 37.0
e 110 219 47.0
e 111 257 5.0
e 111 290 11.0
e 111 250 6.0
e 112 166 6.0
e 113 5 55.0
e 114 314 2.0
e 114 15 4.0
e 116 156 37.0
e 116 301 15.0
e 116 31 66.0
e 116 283 25.0
e 116 188 23.0
e 116 168 73.0
e 116 285 51.0
e 116 264 87.0
e 116 146 42.0
e 116 185 33.0
e 116 206 17.0
e 116 159 84.0
e 116 176 4.0
e 116 129 25.0
e 116 271 48.0
e 116 117 23.0
e 116 109 6.0
e 118 179 3.0
e 118 38 10.0
e 118 85 9.0
e 119 32 11.0
e 122 32 3.0
e 122 77 1.0
e 122 298 9.0
e 123 146 4.0
e 123 147 1.0
e 123 84 75.0
e 124 241 65.0
e 124 192 100.0
e 124 119 69.0
e 124 158 16.0
e 124 210 7.0
e 124 196 10.0
e 124 316 47.0
e 124 117 25.0
e 124 149 57.0
e 124 277 34.0
e 124 44 7.0
e 124 181 64.0
e 124 209 76.0
e 124 25 29.0
e 124 92 88.0
e 125 29 1.0
e 125 264 1.0
e 126 136 92.0
e 126 195 22.0
e 126 128 96.0
e 126 291 18.0
e 126 285 87.0
e 126 241 18.0
e 126 127 10.0
e 126 97 29.0
e 126 170 61.0
e 126 213 84.0
e 126 36 88.0
e 126 7 42.0
e 126 80 87.0
e 126 286 92.0
e 126 201 6.0
e 126 102 40.0
e 126 162 97.0
e 128 248 14.0
e 128 259 23.0
e 128 193 19.0
e 129 191 4.0
e 131 200 13.0
e 131 235 14.0
e 131 12 5.0
e 131 164 22.0
e 131 297 10.0
e 133 92 6.0
e 133 16 2.0
e 134 73 19.0
e 134 221 12.0
e 134 239 4.0
e 134 160 14.0
e 137 218 8.0
e 137 210 5.0
e 137 274 9.0
e 139 229 7.0
e 139 218 4.0
e 139 150 9.0
e 140 104 1.0
e 141 110 47.0
e 141 165 5.0
e 142 247 10.0
e 142 47 92.0
e 142 156 34.0
e 142 291 89.0
e 142 191 33.0
e 142 261 28.0
e 142 21 11.0
e 142 112 22.0
e 142 221 98.0
e 142 118 76.0
e 142 305 20.0
e 142 251 55.0
e 142 144 81.0
e 142 126 98.0
e 142 159 90.0
e 142 160 11.0
e 142 252 29.0
e 143 145 5.0
e 143 27 11.0
e 143 135 7.0
e 148 108 57.0
e 148 76 63.0
e 148 197 24.0
e 148 92 25.0
e 148 168 85.0
e 148 47 61.0
e 148 220 54.0
e 148 281 46.0
e 148 274 60.0
e 148 316 17.0
e 148 121 19.0
e 148 282 45.0
e 148 253 10.0
e 148 190 85.0
e 148 56 39.0
e 150 282 10.0
e 150 311 32.0
e 150 194 23.0
e 150 215 9.0
e 150 165 46.0
e 150 113 29.0
e 150 317 9.0
e 150 294 36.0
e 151 261 32.0
e 154 269 1.0
e 155 311 3.0
e 155 228 1.0
e 157 250 1.0
e 158 291 1.0
e 161 264 7.0
e 161 274 8.0
e 163 266 11.0
e 163 60 3.0
e 163 151 3.0
e 167 218 12.0
e 169 176 5.0
e 169 22 19.0
e 169 210 11.0
e 169 53 10.0
e 169 199 12.0
e 171 106 8.0
e 174 225 35.0
e 174 28 19.0
e 174 306 53.0
e 174 283 68.0
e 174 11 77.0
e 174 71 78.0
e 174 93 79.0
e 174 231 81.0
e 174 237 19.0
e 174 3 32.0
e 174 118 30.0
e 174 222 25.0
e 174 182 83.0
e 174 50 20.0
e 174 75 77.0
e 175 11 4.0
e 177 41 1.0
e 177 49 3.0
e 178 109 3.0
e 180 141 4.0
e 181 149 19.0
e 181 72 12.0
e 181 203 3.0
e 181 81 8.0
e 184 177 2.0
e 186 198 1.0
e 186 189 6.0
e 195 101 36.0
e 196 172 14.0
e 196 315 6.0
e 196 291 17.0
e 196 98 20.0
e 198 229 1.0
e 201 162 1.0
e 202 113 1.0
e 202 45 5.0
e 203 289 72.0
e 204 253 14.0
e 204 199 24.0
e 204 107 31.0
e 204 270 12.0
e 204 250 27.0
e 204 247 21.0
e 204 139 30.0
e 205 234 1.0
e 205 172 2.0
e 207 62 99.0
e 207 57 38.0
e 207 135 46.0
e 207 47 94.0
e 207 44 90.0
e 207 24 86.0
e 207 293 10.0
e 207 167 52.0
e 207 286 40.0
e 207 166 15.0
e 207 169 14.0
e 207 33 28.0
e 207 234 26.0
e 207 168 17.0
e 208 289 43.0
e 211 183 1.0
e 211 72 24.0
e 211 298 8.0
e 212 280 2.0
e 214 147 6.0
e 214 83 4.0
e 214 313 87.0
e 216 130 2.0
e 216 151 1.0
e 217 82 1.0
e 223 144 5.0
e 223 248 5.0
e 224 15 2.0
e 225 199 15.0
e 225 297 11.0
e 225 242 5.0
e 226 159 2.0
e 227 16 14.0
e 227 317 1.0
e 227 181 24.0
e 227 161 20.0
e 227 86 1.0
e 231 187 6.0
e 232 104 1.0
e 233 279 11.0
e 233 143 47.0
e 233 36 46.0
e 233 145 19.0
e 233 144 16.0
e 233 192 20.0
e 233 291 50.0
e 233 157 1.0
e 233 42 38.0
e 236 182 1.0
e 237 198 6.0
e 237 243 33.0
e 237 107 32.0
e 237 268 57.0
e 237 11 76.0
e 237 191 44.0
e 237 137 74.0
e 237 178 100.0
e 237 223 15.0
e 237 197 50.0
e 237 80 69.0
e 237 289 84.0
e 237 175 67.0
e 237 17 5.0
e 237 145 82.0
e 238 109 4.0
e 239 246 61.0
e 239 88 65.0
e 239 122 2.0
e 239 224 84.0
e 239 308 18.0
e 239 309 9.0
e 239 63 25.0
e 239 219 72.0
e 239 10 76.0
e 239 240 60.0
e 239 53 73.0
e 239 315 6.0
e 239 265 67.0
e 239 50 92.0
e 239 96 11.0
e 240 183 1.0
e 243 146 15.0
e 243 51 6.0
e 243 112 19.0
e 244 166 1.0
e 245 81 9.0
e 246 180 6.0
e 249 180 2.0
e 249 137 2.0
e 249 21 3.0
e 249 24 6.0
e 249 139 16.0
e 254 251 86.0
e 254 262 29.0
e 254 169 28.0
e 254 267 88.0
e 254 252 94.0
e 254 85 77.0
e 254 39 86.0
e 254 186 37.0
e 254 65 4.0
e 254 159 29.0
e 254 49 98.0
e 254 40 23.0
e 254 114 46.0
e 254 36 42.0
e 254 256 29.0
e 254 28 88.0
e 255 179 1.0
e 255 101 46.0
e 255 77 12.0
e 256 59 5.0
e 256 12 4.0
e 256 266 15.0
e 259 220 7.0
e 259 150 23.0
e 260 87 1.0
e 261 46 88.0
e 261 134 61.0
e 261 256 71.0
e 261 271 9.0
e 261 107 100.0
e 261 55 52.0
e 261 124 15.0
e 261 56 82.0
e 261 135 46.0
e 261 114 63.0
e 261 71 71.0
e 261 277 26.0
e 262 292 3.0
e 263 17 3.0
e 268 227 55.0
e 268 64 94.0
e 268 33 92.0
e 268 277 43.0
e 268 297 55.0
e 268 197 59.0
e 268 316 79.0
e 268 278 39.0
e 268 149 3.0
e 268 40 72.0
e 268 112 53.0
e 268 139 25.0
e 268 269 15.0
e 268 51 16.0
e 268 206 27.0
e 268 228 4.0
e 272 48 7.0
e 273 73 4.0
e 275 82 8.0
e 276 29 3.0
e 276 105 3.0
e 278 269 18.0
e 278 277 20.0
e 278 121 3.0
e 284 285 1.0
e 284 113 5.0
e 285 204 10.0
e 285 245 22.0
e 287 122 7.0
e 288 39 4.0
e 288 212 5.0
e 289 263 11.0
e 289 150 43.0
e 289 256 56.0
e 289 292 12.0
e 289 228 80.0
e 289 230 29.0
e 289 114 50.0
e 289 65 75.0
e 289 280 65.0
e 289 224 66.0
e 289 220 98.0
e 289 290 15.0
e 289 35 99.0
e 294 167 47.0
e 294 77 17.0
e 294 96 25.0
e 294 134 28.0
e 294 124 92.0
e 294 281 34.0
e 294 34 34.0
e 296 183 1.0
e 299 98 2.0
e 301 5 41.0
e 303 108 1.0
e 304 115 1.0
e 307 287 1.0
e 308 120 4.0
e 310 194 2.0
e 312 318 4.0
e 313 123 14.0
e 313 245 8.0
e 313 46 93.0
e 313 178 58.0
e 313 137 62.0
e 313 248 71.0
e 313 70 79.0
e 313 6 77.0
e 313 204 62.0
e 313 48 74.0
e 313 302 35.0
e 313 65 31.0
e 315 303 5.0
e 315 129 6.0
e 315 94 1.0
e 318 170 4.0
e 319 105 2.0
e 319 34 1.0
